; Copyright (c) 2026 The RIINA Authors. All rights reserved.
; Copyright (c) 2026 The RIINA Authors.
; Auto-generated from 02_FORMAL/coq/domains/mobile_os/MemoryManagement.v (21 assertions)
; Generated by scripts/generate-full-stack.py
; Module: MemoryManagement

(set-logic ALL)
(set-option :produce-models true)

; SystemEvent (matches Coq: Inductive SystemEvent)
(declare-datatypes ((SystemEvent 0)) (((SystemOutOfMemory) (MemoryPressure) (NormalOperation))))

; AllocState (matches Coq: Inductive AllocState)
(declare-datatypes ((AllocState 0)) (((Allocated) (Freed) (Uninitialized_mem))))

; MemoryPage (matches Coq: Record MemoryPage)
(declare-datatypes ((MemoryPage 0))
  (((mk-memory_page (page_id Int) (page_contents PageData) (page_compressed Bool) (page_owner Int)))))

; Application (matches Coq: Record Application)
(declare-datatypes ((Application 0))
  (((mk-application (app_id Int) (app_memory_limit Int) (app_current_memory Int) (app_well_behaved Bool)))))

; SystemMemory (matches Coq: Record SystemMemory)
(declare-datatypes ((SystemMemory 0))
  (((mk-system_memory (total_memory Int) (used_memory Int) (reserved_memory Int) (pages list)))))

; MemoryBlock (matches Coq: Record MemoryBlock)
(declare-datatypes ((MemoryBlock 0))
  (((mk-memory_block (block_id Int) (block_start Int) (block_size Int) (block_state AllocState) (block_owner Int) (block_zeroed Bool)))))

; Heap (matches Coq: Record Heap)
(declare-datatypes ((Heap 0))
  (((mk-heap (heap_blocks list) (heap_total_size Int) (heap_used_size Int) (heap_fragmentation_ratio Int)))))

; StackFrame (matches Coq: Record StackFrame)
(declare-datatypes ((StackFrame 0))
  (((mk-stack_frame (frame_id Int) (frame_size Int) (frame_return_addr Int)))))

; Stack (matches Coq: Record Stack)
(declare-datatypes ((Stack 0))
  (((mk-stack (stack_frames list) (stack_max_depth Int) (stack_current_depth Int)))))

; VirtualMapping (matches Coq: Record VirtualMapping)
(declare-datatypes ((VirtualMapping 0))
  (((mk-virtual_mapping (vmap_virtual_page VirtualPage) (vmap_physical_page Int) (vmap_page_size Int) (vmap_readable Bool) (vmap_writable Bool)))))

; PageData (matches Coq: Definition PageData)
(define-fun PageData () Type true)

; compress_data (matches Coq: Definition compress_data)
(define-fun compress_data ((d PageData)) PageData
  d)

; decompress_data (matches Coq: Definition decompress_data)
(define-fun decompress_data ((d PageData)) PageData
  d)

; compress (matches Coq: Definition compress)
(define-fun compress ((p MemoryPage)) MemoryPage
  true)

; decompress (matches Coq: Definition decompress)
(define-fun decompress ((p MemoryPage)) MemoryPage
  true)

; well_behaved_app (matches Coq: Definition well_behaved_app)
(define-fun well_behaved_app ((app Application)) Prop
  true)

; system_out_of_memory (matches Coq: Definition system_out_of_memory)
(define-fun system_out_of_memory () SystemEvent SystemOutOfMemory)

; can_cause (matches Coq: Definition can_cause)
(define-fun can_cause ((app Application) (event SystemEvent)) Prop
  true)

; pages_isolated (matches Coq: Definition pages_isolated)
(define-fun pages_isolated () Prop true)

; VirtualPage (matches Coq: Definition VirtualPage)
(define-fun VirtualPage () Type nat)

; block_allocated (matches Coq: Definition block_allocated)
(define-fun block_allocated ((b MemoryBlock)) Prop
  true)

; block_freed (matches Coq: Definition block_freed)
(define-fun block_freed ((b MemoryBlock)) Prop
  true)

; allocation_bounded (matches Coq: Definition allocation_bounded)
(define-fun allocation_bounded ((h Heap)) Prop
  true)

; no_double_free_prop (matches Coq: Definition no_double_free_prop)
(define-fun no_double_free_prop ((bid Int)) Prop
  true)

; no_use_after_free_prop (matches Coq: Definition no_use_after_free_prop)
(define-fun no_use_after_free_prop ((b MemoryBlock)) Prop
  true)

; heap_fragmentation_bounded_prop (matches Coq: Definition heap_fragmentation_bounded_prop)
(define-fun heap_fragmentation_bounded_prop ((h Heap) (max_frag Int)) Prop
  true)

; stack_within_bounds (matches Coq: Definition stack_within_bounds)
(define-fun stack_within_bounds ((s Stack)) Prop
  true)

; page_aligned (matches Coq: Definition page_aligned)
(define-fun page_aligned ((vm VirtualMapping)) Prop
  true)

; mappings_non_overlapping (matches Coq: Definition mappings_non_overlapping)
(define-fun mappings_non_overlapping () Prop true)

; block_zeroed_on_free (matches Coq: Definition block_zeroed_on_free)
(define-fun block_zeroed_on_free ((b MemoryBlock)) Prop
  true)

; memory_pressure_handled_prop (matches Coq: Definition memory_pressure_handled_prop)
(define-fun memory_pressure_handled_prop ((h Heap)) Prop
  true)

; oom_graceful (matches Coq: Definition oom_graceful)
(define-fun oom_graceful ((h Heap) (request Int)) Prop
  true)

; shared_memory_sync (matches Coq: Definition shared_memory_sync)
(define-fun shared_memory_sync () Prop true)

; dma_buffer_protected_prop (matches Coq: Definition dma_buffer_protected_prop)
(define-fun dma_buffer_protected_prop ((b MemoryBlock)) Prop
  true)

; memory_compression_lossless (matches Coq: Theorem memory_compression_lossless)
(assert (= true true)) ; memory_compression_lossless [untranslatable]

; compression_preserves_id (matches Coq: Theorem compression_preserves_id)
(assert (= true true)) ; compression_preserves_id [untranslatable]

; compression_preserves_owner (matches Coq: Theorem compression_preserves_owner)
(assert (= true true)) ; compression_preserves_owner [untranslatable]

; no_system_oom_from_app (matches Coq: Theorem no_system_oom_from_app)
(assert (= true true)) ; no_system_oom_from_app [untranslatable]

; memory_isolation_sound (matches Coq: Theorem memory_isolation_sound)
(assert (= true true)) ; memory_isolation_sound [untranslatable]

; decompress_compress_contents (matches Coq: Theorem decompress_compress_contents)
(assert (= true true)) ; decompress_compress_contents [untranslatable]

; allocation_always_bounded (matches Coq: Theorem allocation_always_bounded)
(assert (= true true)) ; allocation_always_bounded [untranslatable]

; deallocation_complete (matches Coq: Theorem deallocation_complete)
(assert (= true true)) ; deallocation_complete [untranslatable]

; no_double_free (matches Coq: Theorem no_double_free)
(assert (= true true)) ; no_double_free [untranslatable]

; no_use_after_free (matches Coq: Theorem no_use_after_free)
(assert (= true true)) ; no_use_after_free [untranslatable]

; memory_leak_impossible (matches Coq: Theorem memory_leak_impossible)
(assert (= true true)) ; memory_leak_impossible [untranslatable]

; stack_overflow_prevented (matches Coq: Theorem stack_overflow_prevented)
(assert (= true true)) ; stack_overflow_prevented [untranslatable]

; heap_fragmentation_bounded (matches Coq: Theorem heap_fragmentation_bounded)
(assert (= true true)) ; heap_fragmentation_bounded [untranslatable]

; memory_pressure_handled (matches Coq: Theorem memory_pressure_handled)
(assert (= true true)) ; memory_pressure_handled [untranslatable]

; oom_graceful_recovery (matches Coq: Theorem oom_graceful_recovery)
(assert (= true true)) ; oom_graceful_recovery [untranslatable]

; virtual_memory_page_aligned (matches Coq: Theorem virtual_memory_page_aligned)
(assert (= true true)) ; virtual_memory_page_aligned [untranslatable]

; memory_mapping_non_overlapping (matches Coq: Theorem memory_mapping_non_overlapping)
(assert (= true true)) ; memory_mapping_non_overlapping [untranslatable]

; shared_memory_synchronized (matches Coq: Theorem shared_memory_synchronized)
(assert (= true true)) ; shared_memory_synchronized [untranslatable]

; cache_coherent (matches Coq: Theorem cache_coherent)
(assert (= true true)) ; cache_coherent [untranslatable]

; dma_buffer_protected (matches Coq: Theorem dma_buffer_protected)
(assert (= true true)) ; dma_buffer_protected [untranslatable]

; memory_zeroed_on_free (matches Coq: Theorem memory_zeroed_on_free)
(assert (= true true)) ; memory_zeroed_on_free [untranslatable]

; Verify all assertions are satisfiable
(check-sat)
(exit)
